c ENC1
p cnf 19 42
7 6 0
9 8 0
14 12 13 0
-7 -6 0
-9 -8 0
-14 -12 0
-14 -13 0
-12 -13 0
-7 11 0
-11 7 0
-6 10 0
-10 6 0
-7 -9 15 0
-15 7 0
-15 9 0
-7 -8 16 0
-16 7 0
-16 8 0
-6 -9 1 0
-1 6 0
-1 9 0
-6 -8 2 0
-2 6 0
-2 8 0
-7 -14 17 0
-17 7 0
-17 14 0
-7 -12 18 0
-18 7 0
-18 12 0
-7 -13 19 0
-19 7 0
-19 13 0
-6 -14 3 0
-3 6 0
-3 14 0
-6 -12 4 0
-4 6 0
-4 12 0
-6 -13 5 0
-5 6 0
-5 13 0
